29
0 28
0 20 1
1 19 1
1 20 1
2 25 1
2 28 1
3 9 0.5
3 12 0.5
3 14 1
4 8 1
4 25 1
5 11 1
5 27 1
6 22 1
6 24 1
7 23 0.5
7 26 0.5
7 27 1
8 4 1
8 11 1
9 3 0.5
9 12 0.5
9 19 1
10 18 1
10 21 1
11 5 1
11 8 1
12 3 0.5
12 9 0.5
12 15 1
13 16 1
13 21 1
14 3 1
14 17 1
15 12 1
15 23 1
16 13 1
16 17 1
17 14 1
17 16 1
18 10 1
18 24 1
19 1 1
19 9 1
20 0 1
20 1 1
21 10 1
21 13 1
22 6 1
22 26 1
23 7 0.5
23 15 1
23 26 0.5
24 6 1
24 18 1
25 2 1
25 4 1
26 7 0.5
26 22 1
26 23 0.5
27 5 1
27 7 1
28 2 1
